
List of user-set options:

                                    Name   Value                used
                   hessian_approximation = limited-memory        yes
                           linear_solver = ma57                  yes
                  ma57_automatic_scaling = yes                   yes
                                max_iter = 400                   yes
                             mu_strategy = adaptive              yes
                             output_file = SpaceLinerCombinedIPOPTinfo.txt  yes
                             print_level = 5                     yes
                      print_user_options = yes                   yes
                                     tol = 1e-007                yes
This is Ipopt version 3.11.0, running with linear solver ma57.

Number of nonzeros in equality constraint Jacobian...:   263456
Number of nonzeros in inequality constraint Jacobian.:       34
Number of nonzeros in Lagrangian Hessian.............:        0

Total number of variables............................:    13492
                     variables with only lower bounds:        0
                variables with lower and upper bounds:    13492
                     variables with only upper bounds:        0
Total number of equality constraints.................:    11833
Total number of inequality constraints...............:       18
        inequality constraints with only lower bounds:        0
   inequality constraints with lower and upper bounds:       18
        inequality constraints with only upper bounds:        0

iter    objective    inf_pr   inf_du lg(mu)  ||d||  lg(rg) alpha_du alpha_pr  ls
   0 1.0000000e+009 5.87e+000 3.88e+000   0.0 0.00e+000    -  0.00e+000 0.00e+000   0
   1 1.0034269e+009 5.61e+000 7.92e+002   0.1 2.11e+001    -  1.16e-002 1.29e-003f  1
   2 1.0065670e+009 5.49e+000 1.20e+003   0.0 2.58e+001    -  1.30e-002 5.33e-003h  1
   3 1.0060026e+009 5.40e+000 2.52e+003   0.8 3.58e+001    -  5.79e-003 2.29e-003f  1
   4 1.0087531e+009 5.32e+000 3.45e+003  -0.2 4.22e+001    -  6.71e-003 4.20e-003f  1
   5 1.0084024e+009 5.29e+000 5.15e+003  -0.3 5.07e+001    -  4.49e-003 1.17e-003f  3
   6r1.0084024e+009 5.29e+000 9.99e+002   0.7 0.00e+000    -  0.00e+000 2.58e-007R 14
   7r1.0080523e+009 6.69e+000 1.16e+003   1.5 5.38e+003    -  1.48e-003 9.20e-004f  1
   8r1.0042458e+009 5.26e+000 1.46e+003   2.0 6.33e+002    -  1.87e-003 2.54e-003f  1
   9r9.9972348e+008 5.39e+000 1.51e+003   1.6 3.11e+002    -  1.16e-002 3.76e-003f  1
iter    objective    inf_pr   inf_du lg(mu)  ||d||  lg(rg) alpha_du alpha_pr  ls
  10r9.6707458e+008 5.45e+000 1.66e+003   1.6 1.26e+002    -  1.05e-002 1.33e-002f  1
  11r8.0676489e+008 5.46e+000 3.30e+003   1.6 4.21e+001    -  1.65e-002 1.99e-002f  1
  12r6.2171322e+008 5.37e+000 4.15e+003   0.6 3.94e+001    -  3.09e-002 2.15e-002f  1
  13r5.9746309e+008 5.20e+000 8.43e+003   0.6 1.46e+001    -  7.87e-002 3.41e-002f  1
  14r5.7406943e+008 5.03e+000 1.24e+004  -0.3 8.20e+000    -  7.37e-002 3.42e-002f  1
  15r5.4487689e+008 4.83e+000 1.84e+004   0.0 3.48e+001    -  5.94e-002 4.88e-002f  1
  16r5.0996261e+008 7.60e+000 2.48e+004   0.5 8.74e+000    -  2.27e-002 6.86e-002f  1
  17r5.0576714e+008 9.15e+000 2.56e+004  -5.4 6.81e+000    -  3.18e-002 8.34e-003f  1
  18r5.0986554e+008 1.82e+001 1.97e+004   1.9 8.29e+001    -  3.68e-002 1.95e-002f  1
  19r4.9366696e+008 3.41e+001 2.01e+004   0.7 1.01e+001    -  8.38e-002 3.36e-002f  1
iter    objective    inf_pr   inf_du lg(mu)  ||d||  lg(rg) alpha_du alpha_pr  ls
  20r4.6750951e+008 9.31e+001 2.29e+004   0.7 5.62e+000    -  2.82e-001 5.69e-002f  1
  21r4.1021563e+008 3.20e+002 1.48e+005   0.7 7.38e+000    -  2.70e-001 1.33e-001f  1
  22r4.0044088e+008 3.00e+002 1.37e+005   0.7 2.24e+000    -  7.59e-002 3.80e-002f  1
  23r3.6963137e+008 2.13e+002 1.03e+005   0.7 2.11e+000    -  2.04e-001 9.37e-002f  1
  24r3.1799701e+008 1.68e+002 8.10e+004   0.7 9.12e-001    -  1.06e-001 1.43e-001f  1
  25r2.6630428e+008 1.02e+002 8.24e+004   0.7 1.01e+000    -  2.72e-001 1.99e-001f  1
  26r2.5087916e+008 7.95e+001 6.48e+004   1.1 7.99e-001    -  8.04e-001 8.75e-002f  1
  27r2.0849912e+008 4.91e+001 4.50e+004   0.9 1.33e+000    -  2.86e-001 2.29e-001f  1
  28r1.8724731e+008 4.87e+001 4.57e+004   0.9 3.49e-001    -  3.70e-001 1.48e-001f  1
  29r1.4699007e+008 2.83e+000 6.74e+003   0.9 2.89e+000    -  3.08e-001 3.30e-001f  1
iter    objective    inf_pr   inf_du lg(mu)  ||d||  lg(rg) alpha_du alpha_pr  ls
  30r1.4699007e+008 2.83e+000 9.97e+002   0.6 0.00e+000    -  0.00e+000 3.73e-007R 13
  31r1.4655852e+008 2.90e+000 9.86e+002   1.4 3.22e+002    -  2.58e-002 3.52e-003f  1
  32 1.4643517e+008 2.89e+000 3.61e+003   0.5 7.63e+001    -  1.04e-001 9.12e-004h  1
  33 1.4617418e+008 2.87e+000 1.89e+004   0.9 5.76e+001    -  1.00e+000 8.66e-003h  2
  34r1.4617418e+008 2.87e+000 9.91e+002   2.1 0.00e+000    -  0.00e+000 2.82e-007R 17
  35r1.2950195e+008 4.18e+000 1.44e+003   0.9 3.78e+000    -  4.89e-001 1.91e-001f  1
  36 1.2949587e+008 4.18e+000 5.90e+003   1.8 6.54e+001    -  1.98e-002 2.80e-005h  1
  37 1.3047360e+008 4.16e+000 3.85e+004   1.7 6.16e+001    -  4.82e-001 6.46e-003h  2
  38r1.3047360e+008 4.16e+000 9.74e+002   2.7 0.00e+000    -  0.00e+000 2.62e-007R 16
  39r1.1609528e+008 4.69e+000 2.73e+002   0.3 8.74e-001    -  8.26e-001 7.49e-001f  1
iter    objective    inf_pr   inf_du lg(mu)  ||d||  lg(rg) alpha_du alpha_pr  ls
  40 1.1641045e+008 4.68e+000 1.80e+003   0.5 4.89e+001    -  1.71e-001 5.24e-004h  1
  41 1.2055120e+008 4.67e+000 6.46e+004   1.3 1.91e+001    -  5.30e-001 2.51e-003h  4
  42 1.2778972e+008 4.66e+000 8.52e+005   2.8 1.52e+001    -  1.62e-001 3.07e-003h  4
  43r1.2778972e+008 4.66e+000 9.99e+002   2.8 0.00e+000    -  0.00e+000 3.53e-007R 17
  44r1.2273703e+008 4.32e+000 2.64e+002  -3.5 7.31e-001    -  7.35e-001 8.78e-001f  1
  45 1.2303540e+008 4.32e+000 2.56e+003   0.9 2.90e+001    -  6.45e-002 1.13e-004f  2
  46 1.3639082e+008 4.30e+000 4.12e+003  -0.1 2.67e+001    -  2.91e-002 5.64e-003h  2
  47r1.3639082e+008 4.30e+000 8.13e+002   1.2 0.00e+000    -  0.00e+000 3.19e-007R 17
  48r1.2601414e+008 3.30e+000 2.99e+003  -0.4 4.80e-001    -  7.74e-001 1.89e-001f  1
  49 1.2756910e+008 3.30e+000 4.67e+003   0.9 1.83e+001    -  5.41e-002 4.29e-004h  1
iter    objective    inf_pr   inf_du lg(mu)  ||d||  lg(rg) alpha_du alpha_pr  ls
  50 1.4181876e+008 3.29e+000 1.99e+005   1.2 1.65e+001    -  1.00e+000 3.17e-003h  4
  51 1.5152619e+008 3.28e+000 6.60e+005   2.8 1.69e+001    -  9.07e-002 1.64e-003h  6
  52r1.5152619e+008 3.28e+000 1.00e+003   2.8 0.00e+000    -  0.00e+000 2.77e-007R 18
  53r1.5397907e+008 2.74e+000 1.34e+003  -3.5 6.20e-001    -  9.18e-001 9.52e-001f  1
  54 1.5483581e+008 2.74e+000 3.24e+003   0.7 1.49e+001    -  4.56e-002 1.64e-004f  2
  55 1.6890210e+008 2.73e+000 5.35e+003  -0.2 1.61e+001    -  2.25e-002 2.46e-003h  4
  56 1.7128815e+008 2.73e+000 1.99e+005   0.7 1.67e+001    -  1.00e+000 3.49e-004h  8
  57 1.8031675e+008 2.73e+000 5.02e+006   2.5 1.68e+001    -  1.00e+000 1.15e-003h  6
  58r1.8031675e+008 2.73e+000 9.99e+002   2.8 0.00e+000    -  0.00e+000 2.84e-007R 17
  59r2.0738010e+008 2.61e+000 2.07e+002  -3.4 6.13e-001    -  8.27e-001 9.57e-001f  1
iter    objective    inf_pr   inf_du lg(mu)  ||d||  lg(rg) alpha_du alpha_pr  ls
  60r2.0908311e+008 2.58e+000 1.80e+003  -0.3 6.34e-002    -  8.97e-001 1.97e-001f  1
  61 2.0921612e+008 2.58e+000 1.40e+003   1.8 9.66e+001    -  5.47e-003 1.19e-005f  2
  62 2.1507920e+008 2.58e+000 1.65e+003  -0.2 2.42e+001    -  3.62e-002 1.21e-003h  3
  63 2.4207541e+008 2.56e+000 1.64e+003  -0.2 1.83e+001    -  4.82e-003 4.82e-003s 15
  64r2.4207541e+008 2.56e+000 9.78e+002  -0.2 0.00e+000    -  0.00e+000 0.00e+000R  1
  65r2.6644339e+008 2.61e+000 1.91e+003   0.3 2.91e+000    -  2.11e-001 2.39e-002f  1
  66 2.7339301e+008 2.60e+000 3.23e+002   0.4 1.65e+001    -  4.19e-002 9.30e-004h  1
  67 2.8913855e+008 2.60e+000 6.27e+003   1.3 1.83e+001    -  6.50e-002 1.74e-003f  4
  68 3.2456623e+008 2.58e+000 6.24e+003   0.2 1.49e+001    -  5.23e-003 5.23e-003s 15
  69r3.2456623e+008 2.58e+000 9.66e+002   0.2 0.00e+000    -  0.00e+000 0.00e+000R  1
iter    objective    inf_pr   inf_du lg(mu)  ||d||  lg(rg) alpha_du alpha_pr  ls
  70r3.7002426e+008 2.53e+000 1.46e+003   0.2 9.26e+000    -  2.38e-001 3.53e-002f  1
  71 3.7034159e+008 2.53e+000 4.58e+003   1.8 7.55e+001    -  1.74e-002 1.81e-005f  3
  72r3.7034159e+008 2.53e+000 9.45e+002   0.1 0.00e+000    -  0.00e+000 4.29e-007R 17
  73r3.8218714e+008 2.57e+000 6.10e+003   0.4 1.97e+000    -  9.93e-001 6.97e-002f  1
  74r5.8326798e+008 9.74e-001 7.07e+003   0.2 6.16e-001    -  3.41e-001 8.71e-001f  1
  75r1.0140522e+009 8.97e-001 8.65e+003   0.2 3.79e+000    -  2.08e-001 2.75e-001f  1
  76r8.9910844e+008 6.95e-001 5.14e+004   0.2 4.48e-001    -  1.00e+000 1.00e+000h  1
  77r9.6943818e+008 6.87e-001 3.22e+004   0.2 1.09e+000    -  1.00e+000 9.20e-001f  1
  78r1.0224279e+009 6.73e-001 2.22e+004   0.2 4.38e-001    -  1.00e+000 8.57e-001f  1
  79r1.0136905e+009 6.68e-001 2.26e+004   0.2 1.82e-001    -  1.00e+000 1.00e+000h  1
iter    objective    inf_pr   inf_du lg(mu)  ||d||  lg(rg) alpha_du alpha_pr  ls
  80r1.0136905e+009 6.68e-001 9.27e+001   0.2 1.29e-001    -  0.00e+000 4.77e-007R 22
  81r1.0140397e+009 6.55e-001 8.82e+003   0.2 1.28e-001    -  9.95e-001 5.00e-001f  2
  82r1.0135978e+009 6.49e-001 1.66e+004   0.2 4.52e-001    -  7.01e-001 2.42e-001f  3
  83r1.0148452e+009 6.38e-001 5.06e+003   0.2 3.65e-001    -  8.21e-001 1.00e+000H  1
  84r1.0107031e+009 6.28e-001 1.04e+003   0.2 1.13e-001    -  1.00e+000 1.00e+000h  1
  85r1.0128941e+009 6.33e-001 9.31e+002   0.2 7.52e-002    -  1.00e+000 1.00e+000h  1
  86r1.0123547e+009 6.38e-001 1.30e+003   0.2 2.87e-002    -  1.00e+000 1.00e+000H  1
  87r1.0127861e+009 6.32e-001 1.09e+003   0.2 4.50e-002    -  1.00e+000 1.00e+000H  1
  88r1.0122956e+009 6.32e-001 1.25e+003   0.2 4.04e-002    -  1.00e+000 1.00e+000H  1
  89r1.0119017e+009 6.19e-001 1.55e+003   0.2 1.11e-001    -  1.00e+000 1.00e+000H  1
iter    objective    inf_pr   inf_du lg(mu)  ||d||  lg(rg) alpha_du alpha_pr  ls
  90r1.0131057e+009 6.19e-001 3.42e+003   0.2 4.14e-002    -  1.00e+000 1.00e+000H  1
  91r1.0097577e+009 5.93e-001 1.21e+003   0.2 2.08e-001    -  1.00e+000 1.00e+000H  1
  92r1.0099339e+009 5.95e-001 1.25e+003   0.2 1.17e-001    -  1.00e+000 6.25e-002f  5
  93r1.0106017e+009 5.99e-001 1.97e+003   0.2 4.48e-002    -  1.00e+000 1.00e+000H  1
  94r1.0105800e+009 5.97e-001 4.29e+003   0.2 4.02e-002    -  1.00e+000 1.00e+000H  1
  95r1.0097933e+009 5.91e-001 3.71e+003   0.2 4.75e-002    -  1.00e+000 1.00e+000H  1
  96r1.0092382e+009 5.89e-001 4.18e+003   0.2 4.38e-002    -  1.00e+000 1.00e+000H  1
  97r1.0051064e+009 5.64e-001 3.09e+003   0.2 2.31e-001    -  1.00e+000 1.00e+000H  1
  98r1.0067099e+009 5.71e-001 2.43e+003   0.2 6.29e-002    -  1.00e+000 1.00e+000F  1
  99r1.0060972e+009 5.70e-001 2.28e+003   0.2 3.65e-002    -  1.00e+000 1.00e+000H  1
iter    objective    inf_pr   inf_du lg(mu)  ||d||  lg(rg) alpha_du alpha_pr  ls
 100r1.0061545e+009 5.60e-001 1.36e+003   0.2 5.30e-002    -  1.00e+000 1.00e+000H  1
 101r1.0052978e+009 5.70e-001 1.52e+003   0.2 1.31e-002    -  1.00e+000 1.00e+000H  1
 102r1.0072050e+009 5.58e-001 2.01e+002   0.2 2.24e-002    -  1.00e+000 1.00e+000F  1
 103r1.0058619e+009 5.66e-001 2.25e+001   0.2 9.80e-003    -  1.00e+000 1.00e+000H  1
 104r1.0064639e+009 4.87e-001 7.46e+003  -0.5 1.32e-001    -  3.63e-001 5.41e-001f  1
 105r1.0016226e+009 6.08e-001 2.27e+004  -0.1 2.67e-001    -  9.99e-001 5.39e-001f  1
 106r1.0016034e+009 5.19e-001 3.33e+004   0.3 7.98e-001    -  3.34e-001 2.98e-001f  1
 107r9.9722280e+008 4.36e-001 2.61e+004  -0.0 1.80e-001    -  9.99e-001 7.81e-001f  1
 108r9.9717704e+008 4.29e-001 2.53e+004  -0.1 5.56e-001    -  2.17e-001 7.46e-002f  1
 109r9.9715851e+008 4.15e-001 2.35e+004  -0.1 5.54e-001    -  1.00e+000 1.10e-001f  1
iter    objective    inf_pr   inf_du lg(mu)  ||d||  lg(rg) alpha_du alpha_pr  ls
 110r9.9710884e+008 4.02e-001 1.24e+004  -0.1 7.34e-001    -  1.00e+000 9.41e-002f  1
 111r9.9723785e+008 3.21e-001 3.93e+003  -0.1 6.27e-001    -  1.00e+000 7.53e-001f  1
 112r9.9877441e+008 5.36e-001 4.47e+003  -0.3 3.69e-001    -  1.00e+000 7.35e-001f  1
 113r9.9716489e+008 2.61e-001 6.81e+003  -0.0 1.05e+000    -  5.83e-001 5.32e-001f  1
 114r9.9809364e+008 2.82e-001 3.83e+003  -0.3 4.60e-001    -  1.00e+000 9.30e-001f  1
 115r9.9809903e+008 7.33e-001 6.50e+003  -0.5 3.46e-001    -  1.00e+000 9.83e-001f  1
 116r9.9681024e+008 6.30e-001 6.75e+003  -0.1 9.27e-001    -  6.24e-001 1.64e-001f  1
 117r8.0628851e+008 4.08e-001 2.79e+003  -0.3 7.46e-001    -  9.51e-001 4.23e-001f  1
 118r6.4184506e+008 3.80e-001 2.13e+004  -0.5 3.31e-001    -  1.00e+000 1.00e+000f  1
 119r6.3015110e+008 4.01e-001 3.03e+004  -6.5 6.23e-001    -  2.18e-001 1.23e-001f  1
iter    objective    inf_pr   inf_du lg(mu)  ||d||  lg(rg) alpha_du alpha_pr  ls
 120r7.7793016e+008 3.69e-001 1.75e+004  -0.3 1.04e+000    -  3.05e-001 1.52e-001f  1
 121r8.0767377e+008 3.62e-001 1.58e+004  -0.5 1.21e+000    -  9.84e-001 1.15e-001h  2
 122r5.8866423e+008 3.56e-001 7.86e+003  -0.1 4.31e-001    -  5.96e-001 6.87e-001f  1
 123r8.8723499e+008 3.43e-001 1.21e+004  -0.4 3.43e-001    -  1.00e+000 1.00e+000f  1
 124r8.9656007e+008 4.75e-001 3.65e+004  -0.6 2.12e-001    -  9.76e-001 8.66e-001f  1
 125r8.2912077e+008 8.10e-001 9.71e+004  -1.7 4.49e-001    -  1.98e-001 1.58e-001f  1
 126r4.8344807e+008 6.09e+000 7.70e+005  -0.9 2.28e+000    -  3.93e-001 1.52e-001f  1
 127r3.3332118e+008 7.03e+000 9.68e+005  -0.9 4.79e+000    -  2.63e-002 3.14e-002f  1
 128r4.2285219e+006 1.03e+001 1.77e+006  -1.9 4.13e+000    -  5.53e-002 7.97e-002f  1
 129r3.4348765e+007 7.91e+000 1.41e+006  -6.7 1.13e+000    -  1.87e-002 1.76e-001f  1
iter    objective    inf_pr   inf_du lg(mu)  ||d||  lg(rg) alpha_du alpha_pr  ls
 130r3.3566900e+007 7.86e+000 1.40e+006  -6.8 1.33e+000    -  8.93e-002 3.74e-003f  1
 131r1.3815305e+006 5.64e+000 1.10e+006  -2.7 1.19e+000    -  4.46e-002 1.60e-001f  1
 132r8.6541006e+006 3.35e+000 6.63e+005  -0.3 9.37e-001    -  1.19e-001 1.20e-001f  1
 133r1.1409983e+007 2.88e+000 6.64e+005  -6.7 1.24e+000    -  1.61e-001 6.78e-002f  1
 134r3.4785591e+007 9.25e-001 2.35e+005  -0.5 6.28e-001    -  1.97e-001 2.10e-001f  1
 135r5.3986952e+007 6.80e-001 1.88e+005  -0.4 6.20e-001    -  1.74e-001 7.39e-002f  1
 136r9.6063831e+007 4.10e-001 1.15e+005  -0.8 2.66e-001    -  7.84e-001 1.58e-001f  1
 137r1.8728934e+008 4.21e-001 2.75e+003  -0.7 5.92e-001    -  2.67e-001 5.04e-001f  1
 138r1.8718508e+008 4.24e-001 2.67e+003  -0.7 5.08e-001    -  4.56e-001 5.97e-002f  1
 139r1.8319659e+008 3.53e+000 9.56e+003  -0.7 1.15e+000    -  9.05e-001 5.97e-001f  1
iter    objective    inf_pr   inf_du lg(mu)  ||d||  lg(rg) alpha_du alpha_pr  ls
 140r1.7522120e+008 5.72e-001 7.59e+003   0.2 7.00e+000    -  3.76e-002 4.65e-002f  1
 141r1.6937428e+008 1.68e+000 5.65e+003  -0.7 7.31e-001    -  1.69e-001 6.08e-002f  1
 142r1.5033641e+008 1.55e+000 1.16e+004  -0.7 1.19e+000    -  5.59e-002 1.27e-001f  1
 143r1.2120312e+008 2.78e+000 1.14e+004  -0.7 8.53e-001    -  2.45e-001 2.26e-001f  1
 144r1.0739857e+008 6.39e+000 9.37e+003  -0.7 4.09e+000    -  1.60e-001 1.49e-001F  1
 145r1.0329225e+008 6.17e+000 1.06e+004  -0.7 2.99e+000    -  1.23e-001 2.80e-002h  1
 146r1.0176718e+008 6.11e+000 1.05e+004  -0.7 1.48e+000    -  2.69e-002 1.32e-002h  1
 147r9.7702582e+007 5.81e+000 1.05e+004  -0.7 2.99e+000    -  3.92e-002 4.12e-002f  1
 148r9.1558063e+007 1.40e+000 1.43e+004  -0.7 7.83e-001    -  1.65e-001 3.92e-001f  1
 149r9.1102381e+007 1.80e+000 6.84e+003  -0.7 4.14e-001    -  1.30e-001 4.38e-001f  1
iter    objective    inf_pr   inf_du lg(mu)  ||d||  lg(rg) alpha_du alpha_pr  ls
 150r1.0324008e+008 1.52e+000 6.98e+003  -0.7 1.03e+000    -  2.16e-001 4.67e-002f  1
 151r1.1630477e+008 1.60e+000 6.74e+003  -0.7 2.22e+000    -  1.93e-001 6.19e-002f  1
 152r1.9805266e+008 9.23e-001 7.03e+003  -0.7 2.47e+000    -  2.04e-001 1.82e-001f  1
 153r4.5320770e+008 1.14e+000 5.28e+003  -0.7 4.51e+000    -  9.33e-002 1.04e-001f  1
 154r4.5533436e+008 1.03e+000 4.65e+003  -0.7 1.11e+000    -  2.35e-001 6.59e-002h  1
 155r3.1587827e+008 1.32e+000 4.72e+003  -0.7 1.44e+000    -  6.95e-001 1.76e-001h  1
 156r1.5992798e+008 1.58e+000 5.00e+003  -0.7 1.59e+000    -  7.53e-001 1.56e-001h  2
 157r4.3371405e+007 1.45e+000 5.19e+003  -0.7 1.47e+000    -  2.52e-001 1.68e-001h  1
 158r4.5065450e+007 1.44e+000 5.15e+003  -0.7 8.46e-001    -  1.36e-001 1.04e-002h  1
 159r1.2182597e+008 1.27e+000 4.44e+003  -0.7 3.68e+000    -  8.24e-002 1.29e-001f  1
iter    objective    inf_pr   inf_du lg(mu)  ||d||  lg(rg) alpha_du alpha_pr  ls
 160r1.2209698e+008 1.28e+000 4.41e+003  -0.7 1.94e+000    -  1.82e-001 2.78e-003h  6
 161r1.3651634e+008 1.45e+000 2.64e+003  -0.7 1.99e+000    -  2.15e-001 2.15e-001s 20
 162r1.6665540e+008 1.68e+000 2.83e+003  -0.7 1.29e+000    -  1.63e-001 1.63e-001s 20
 163r2.0915154e+008 1.34e+000 3.31e+003  -0.7 3.11e+000    -  1.01e-001 1.01e-001s 20
 164r2.0312210e+008 1.30e+000 3.41e+003  -0.7 1.79e+000    -  1.93e-001 1.93e-001s 20
 165r1.7482359e+008 1.69e+000 5.57e+003  -0.7 1.70e+000    -  4.27e-001 4.27e-001s 20
 166r1.3154521e+008 2.07e+000 5.34e+003  -0.7 1.10e+000    -  2.66e-001 2.66e-001s 20
 167r1.3154521e+008 2.07e+000 2.47e+002  -0.7 2.34e+000    -  0.00e+000 0.00e+000R  1
 168r1.1396648e+008 1.88e+000 8.02e+002  -0.7 2.33e+000    -  1.23e-001 7.10e-002f  3
 169r1.0848805e+008 1.76e+000 1.23e+003  -0.7 2.23e+000    -  9.59e-002 3.78e-002f  3
iter    objective    inf_pr   inf_du lg(mu)  ||d||  lg(rg) alpha_du alpha_pr  ls
 170r1.0827213e+008 1.75e+000 1.26e+003  -0.7 1.91e+000    -  1.42e-001 2.25e-003f  7
 171r1.0822589e+008 1.75e+000 1.27e+003  -0.7 1.90e+000    -  8.03e-002 5.24e-004f 10
 172r1.0820291e+008 1.75e+000 1.27e+003  -0.7 2.05e+000    -  2.09e-002 3.12e-004f 11
 173r1.0029809e+008 1.75e+000 3.13e+003  -0.7 3.65e+000    -  3.73e-002 1.76e-001f  1
 174r1.0809654e+008 1.93e+000 5.74e+003  -0.7 1.57e+000    -  2.51e-002 2.13e-001f  1
 175r1.5946663e+008 1.77e+000 6.12e+003  -0.7 6.68e+000    -  9.37e-002 9.21e-002f  1
 176r3.2460463e+008 1.23e+000 4.81e+003  -0.7 2.21e+001    -  4.49e-002 4.68e-002f  1
 177r6.0874412e+008 1.50e+000 2.29e+003  -0.7 1.11e+001    -  9.80e-002 9.02e-002f  1
 178r8.3223910e+008 2.00e+000 3.45e+003  -0.7 8.68e+000    -  2.29e-001 4.85e-002f  1
 179r9.9926316e+008 1.43e+000 3.51e+003  -0.7 3.38e+000    -  1.46e-001 4.94e-002f  1
iter    objective    inf_pr   inf_du lg(mu)  ||d||  lg(rg) alpha_du alpha_pr  ls
 180r1.0009349e+009 1.50e+000 4.23e+003  -0.7 1.86e+000    -  2.23e-001 2.27e-002f  1
 181r1.0005687e+009 1.62e+000 4.60e+003  -0.7 1.91e+000    -  3.22e-001 1.61e-001f  1
 182r1.0004145e+009 1.43e+000 3.66e+003  -0.7 1.62e+000    -  5.22e-001 8.48e-002f  1
 183r9.9640130e+008 1.33e+000 5.47e+003  -0.7 1.24e+000    -  5.46e-002 2.60e-001f  1
 184r7.4479106e+008 6.15e-001 3.35e+003  -0.7 1.84e+000    -  3.74e-001 5.19e-001f  1
 185r7.9025516e+008 1.31e+000 1.26e+004  -0.7 1.55e+000    -  3.05e-001 3.23e-001f  1
 186r7.7917070e+008 1.04e+000 8.62e+003  -0.7 1.63e+000    -  4.36e-001 6.19e-002f  1
 187r8.5108807e+008 3.80e-001 4.78e+003  -0.7 1.13e+000    -  2.04e-001 3.59e-001f  1
 188r9.5946510e+008 5.72e-001 5.64e+003  -0.7 1.35e+000    -  5.92e-001 1.25e-001f  1
 189r1.0005201e+009 6.28e-001 5.71e+003  -0.7 1.15e+000    -  4.13e-001 1.53e-001f  1
iter    objective    inf_pr   inf_du lg(mu)  ||d||  lg(rg) alpha_du alpha_pr  ls
 190r9.9886231e+008 2.54e+000 1.63e+004  -0.7 2.69e+000    -  1.99e-001 2.38e-001f  1
 191r9.9900417e+008 1.93e+000 1.77e+004  -0.7 2.69e+000    -  1.09e-001 1.42e-001f  1
 192r9.9890161e+008 1.79e+000 1.43e+004  -0.7 2.70e+000    -  1.91e-001 6.90e-002f  1
 193r9.9890060e+008 1.72e+000 1.25e+004  -0.7 3.22e+000    -  2.72e-001 3.20e-002f  1
 194r9.9895767e+008 1.45e+000 6.37e+003  -0.7 1.74e+000    -  1.98e-001 1.36e-001f  1
 195r9.9899587e+008 7.99e-001 9.00e+003  -0.7 2.69e+000    -  1.18e-001 3.14e-001f  1
 196r9.9952392e+008 7.34e-001 8.89e+003  -0.7 1.87e+000    -  1.75e-001 1.45e-001f  1
 197r9.9901092e+008 5.33e-001 8.82e+003  -0.7 1.21e+000    -  3.75e-002 2.78e-001f  1
 198r1.0001248e+009 4.10e-001 7.70e+003  -0.7 8.94e-001    -  2.80e-001 2.46e-001f  1
 199r1.0004857e+009 4.14e-001 6.65e+003  -0.8 1.57e+000    -  5.54e-001 2.22e-001f  1
iter    objective    inf_pr   inf_du lg(mu)  ||d||  lg(rg) alpha_du alpha_pr  ls
 200r1.0010825e+009 4.30e-001 3.19e+003  -1.1 1.49e+000    -  6.57e-001 7.72e-001f  1
 201r1.0013244e+009 4.62e-001 2.41e+003  -1.5 1.47e+000    -  4.32e-001 5.48e-001f  1
 202r1.0009461e+009 4.94e+000 3.18e+003  -1.7 4.61e-001    -  3.22e-001 6.98e-001f  1
 203r1.0009507e+009 1.49e+000 3.28e+003  -1.1 1.79e+000    -  7.36e-001 3.06e-001f  1
 204r1.0010925e+009 4.20e-001 3.37e+003  -1.2 1.23e+000    -  3.80e-001 5.62e-001h  1
 205r1.0005742e+009 4.20e-001 2.08e+003  -0.9 4.99e-001    -  3.51e-001 7.97e-001f  1
 206r1.0012644e+009 1.06e+000 1.27e+004  -1.3 7.44e-001    -  7.87e-001 5.08e-001f  1
 207r1.0014655e+009 1.41e+000 3.07e+004  -1.3 3.14e+000    -  1.67e-001 8.50e-002f  1
 208r1.0014655e+009 1.41e+000 6.28e+001  -1.3 1.25e+001    -  0.00e+000 3.32e-007R 15
 209r1.0014544e+009 1.42e+000 1.92e+003  -1.3 6.07e+000    -  7.27e-002 6.90e-003f  1
iter    objective    inf_pr   inf_du lg(mu)  ||d||  lg(rg) alpha_du alpha_pr  ls
 210r1.0013138e+009 1.41e+000 1.94e+004  -1.3 5.33e+000    -  1.24e-001 6.45e-002f  1
 211r1.0012847e+009 3.10e+000 1.83e+004  -1.3 1.97e+000    -  1.01e-001 1.52e-001F  1
 212r1.0012452e+009 2.67e+000 1.41e+004  -1.3 2.18e+000    -  7.23e-002 1.40e-001f  1
 213r1.0014579e+009 1.80e+000 3.35e+003  -1.3 1.03e+000    -  1.52e-001 3.21e-001f  1
 214r1.0014562e+009 1.75e+000 1.25e+003  -1.3 1.44e+000    -  2.15e-001 6.46e-002f  3
 215r1.0009246e+009 1.67e+000 8.80e+002  -1.3 6.05e+000    -  7.01e-003 1.42e-002f  1
 216r1.0000744e+009 1.77e+000 1.34e+003  -1.3 1.12e+001    -  1.05e-002 1.58e-002f  1
 217r9.9734192e+008 9.00e-001 2.24e+004  -1.3 1.02e+000    -  1.06e-002 7.16e-001f  1
 218r9.9789461e+008 8.89e-001 2.05e+004  -1.3 1.12e+000    -  8.35e-002 3.06e-002f  1
 219r9.7727644e+008 8.92e-001 1.82e+004  -1.3 2.81e-001    -  1.53e-001 7.06e-001f  1
iter    objective    inf_pr   inf_du lg(mu)  ||d||  lg(rg) alpha_du alpha_pr  ls
 220r9.7034008e+008 8.78e-001 1.83e+004  -1.3 4.94e-001    -  1.73e-001 7.07e-002f  1
 221r8.0460030e+008 7.94e-001 3.63e+004  -1.3 2.70e-001    -  2.85e-001 7.84e-001f  1
 222r8.3516656e+008 4.73e-001 3.36e+004   0.8 4.36e+002    -  3.36e-002 1.80e-003f  1
 223r8.3565125e+008 4.73e-001 3.36e+004  -1.4 5.83e+000    -  1.67e-001 1.34e-003f  1
 224r9.2844549e+008 1.85e+000 3.74e+004  -1.1 7.81e-001    -  4.56e-001 7.91e-001f  1
 225r1.0034006e+009 1.63e+000 3.31e+004  -1.0 1.11e+000    -  6.69e-001 6.76e-002f  1
 226r1.0020927e+009 6.10e-001 1.99e+004  -1.0 1.92e+000    -  3.45e-001 3.23e-001f  1
 227r1.0021416e+009 1.02e+000 6.77e+003  -1.0 4.63e-001    -  1.00e+000 6.77e-001h  1
 228r1.0006857e+009 4.38e-001 2.70e+003  -1.0 1.97e-001    -  1.00e+000 8.65e-001f  1
 229r1.0000838e+009 4.38e-001 2.81e+003  -1.0 3.73e-001    -  4.72e-002 7.81e-003h  8
iter    objective    inf_pr   inf_du lg(mu)  ||d||  lg(rg) alpha_du alpha_pr  ls
 230r1.0000406e+009 4.38e-001 2.81e+003  -1.0 3.54e-001    -  1.00e+000 1.22e-004h 14
 231r9.9599939e+008 4.37e-001 4.21e+003  -1.0 3.90e-001    -  8.12e-002 8.12e-002s 22
 232r1.0035825e+009 4.15e-001 6.71e+003  -1.0 9.21e-001    -  7.19e-001 0.00e+000S 22
 233r9.9787719e+008 1.23e+000 3.81e+003  -1.0 8.98e-001    -  1.00e+000 4.70e-001f  1
 234r9.9540741e+008 1.99e+000 2.97e+004  -1.0 8.87e-001    -  5.02e-001 2.59e-001h  1
 235r9.9540741e+008 1.99e+000 2.76e+001  -1.0 1.15e+000    -  0.00e+000 4.88e-007R 19
 236r6.5617925e+008 2.00e+000 5.88e+002  -0.3 2.02e+000    -  1.01e-001 1.68e-001f  1
 237r6.2375345e+008 1.60e+000 3.83e+003  -0.4 1.65e+000    -  8.21e-002 8.95e-002f  1
 238r4.6130226e+008 7.63e-001 3.82e+002  -0.4 1.51e+000    -  4.56e-001 2.37e-001f  1
 239r3.0719822e+008 6.05e-001 3.88e+003  -0.4 1.16e+000    -  3.36e-001 6.68e-001f  1
iter    objective    inf_pr   inf_du lg(mu)  ||d||  lg(rg) alpha_du alpha_pr  ls
 240r2.1460017e+008 3.45e-001 5.71e+003  -0.4 4.13e-001    -  8.88e-001 9.89e-001f  1
 241r2.2444137e+008 3.45e-001 1.05e+004  -0.4 2.69e-001    -  1.00e+000 1.00e+000f  1
 242r2.8342259e+008 3.36e-001 1.10e+004  -0.4 4.92e-001    -  7.79e-001 2.11e-001f  1
 243r4.1319224e+008 3.23e-001 1.23e+004  -0.4 3.26e-001    -  6.58e-001 1.00e+000f  1
 244r6.5078137e+008 2.98e-001 1.07e+004  -0.1 5.08e+000    -  1.44e-001 1.01e-001f  1
 245r9.4610365e+008 7.59e-001 5.39e+003  -0.4 1.33e+000    -  8.15e-001 2.47e-001f  1
 246r1.0015655e+009 8.22e-001 2.05e+003  -0.4 4.19e-001    -  6.89e-001 1.74e-001f  1
 247r9.9464150e+008 1.20e+000 1.69e+004  -0.4 6.76e-001    -  5.33e-002 2.66e-001f  1
 248r8.5478035e+008 1.42e+000 4.72e+004  -0.4 1.39e+000    -  1.78e-001 9.29e-002H  1
 249r8.5478035e+008 1.42e+000 3.08e+002  -0.4 1.83e+000    -  0.00e+000 2.84e-007R 20
iter    objective    inf_pr   inf_du lg(mu)  ||d||  lg(rg) alpha_du alpha_pr  ls
 250r8.3393835e+008 1.34e+000 3.96e+004  -0.4 1.76e+000    -  8.38e-002 1.55e-001f  1
 251r1.0003291e+009 1.14e+000 2.85e+004  -0.4 2.91e+000    -  4.50e-002 5.71e-002f  1
 252r9.5705985e+008 1.13e+000 2.40e+004  -0.4 1.13e+000    -  5.50e-003 7.82e-002f  1
 253r8.9774232e+008 1.10e+000 1.95e+004  -0.4 1.15e+000    -  6.92e-002 6.57e-002f  1
 254r8.8087597e+008 1.07e+000 1.95e+004  -0.4 9.83e-001    -  1.49e-001 2.33e-002f  1
 255r5.9235356e+008 6.79e-001 2.01e+004  -0.4 9.55e-001    -  5.80e-001 3.67e-001f  1
 256r3.9466987e+008 3.52e-001 9.26e+003  -0.4 6.06e-001    -  1.00e+000 4.74e-001f  1
 257r3.6282129e+008 3.70e-001 5.72e+002  -0.4 4.29e-001    -  7.08e-001 3.43e-001f  1
 258r3.7331882e+008 3.79e-001 9.82e+002  -0.4 3.87e-001    -  1.00e+000 2.97e-001f  1
 259r4.6072736e+008 4.00e-001 4.20e+002  -0.4 2.60e-001    -  7.37e-001 9.93e-001f  1
iter    objective    inf_pr   inf_du lg(mu)  ||d||  lg(rg) alpha_du alpha_pr  ls
 260r4.5658494e+008 3.95e-001 1.67e+003  -0.6 2.06e-001    -  1.00e+000 5.06e-001f  1
 261r5.0361797e+008 4.02e-001 8.66e+002  -0.7 6.69e-001    -  1.00e+000 6.39e-001f  1
 262r4.8124759e+008 5.98e-001 5.82e+003  -0.8 2.78e-001    -  1.00e+000 6.44e-001f  1
 263r4.0157446e+008 1.36e+000 7.50e+003  -0.8 5.29e-001    -  3.34e-001 3.34e-001s 21
 264r3.1583454e+008 1.42e+000 1.59e+003  -0.8 5.37e-001    -  3.51e-001 3.51e-001s 21
 265r3.1710188e+008 1.58e+000 1.60e+003  -0.8 1.49e+000    -  2.82e-002 2.82e-002s 21
 266r3.2166113e+008 2.11e+000 1.62e+003  -0.8 7.19e-001    -  8.83e-002 8.83e-002s 21
 267r3.2166113e+008 2.11e+000 6.37e+001  -0.8 1.09e+000    -  0.00e+000 0.00e+000R  1
 268r3.1054067e+008 3.35e+000 1.05e+003  -0.7 2.06e+000    -  4.64e-001 1.75e-001f  1
 269r3.0703473e+008 3.11e+000 1.63e+003  -0.4 2.74e+000    -  8.67e-002 2.89e-002f  1
iter    objective    inf_pr   inf_du lg(mu)  ||d||  lg(rg) alpha_du alpha_pr  ls
 270r3.2443845e+008 2.86e+000 2.55e+003  -0.4 3.41e+000    -  5.32e-002 1.18e-001f  1
 271r3.3278005e+008 3.55e+000 2.92e+003  -0.4 2.72e+000    -  1.31e-001 2.11e-002f  1
 272r3.2402138e+008 3.07e+000 3.06e+003  -0.4 1.46e+000    -  3.05e-001 5.19e-002f  1
 273r3.2735205e+008 2.36e+000 3.60e+003  -0.4 3.46e+000    -  2.19e-001 1.22e-001f  1
 274r3.2237506e+008 2.14e+000 3.51e+003  -0.4 1.19e+000    -  4.25e-001 4.03e-002f  1
 275r2.5207467e+008 2.27e+000 2.47e+003  -0.4 1.13e+000    -  7.01e-001 2.79e-001f  1
 276r1.7335385e+008 3.33e+000 3.84e+003  -0.4 8.19e-001    -  2.99e-001 2.26e-001f  1
 277r1.4015072e+008 9.71e+000 5.30e+003  -0.4 1.68e+000    -  1.28e-001 2.32e-001f  1
 278r1.3718620e+008 1.17e+001 5.78e+003  -0.4 1.54e+000    -  2.08e-001 8.35e-002f  1
 279r1.3601976e+008 1.16e+001 5.28e+003  -0.4 1.18e+000    -  4.07e-001 6.56e-002f  1
iter    objective    inf_pr   inf_du lg(mu)  ||d||  lg(rg) alpha_du alpha_pr  ls
 280r1.3263250e+008 8.01e+000 5.64e+003  -0.4 1.18e+000    -  3.15e-001 1.88e-001f  1
 281r1.6331444e+008 6.50e+000 6.24e+003  -0.4 3.85e+000    -  1.73e-001 1.51e-001f  1
 282r4.2977274e+008 5.95e+000 3.51e+003  -0.4 1.75e+001    -  1.14e-001 1.87e-001f  1
 283r2.4414547e+008 8.90e+000 4.39e+003  -0.4 7.04e-001    -  5.52e-001 4.97e-001f  1
 284r2.5172589e+008 6.97e+000 2.30e+003  -0.4 9.93e-001    -  5.16e-001 1.85e-001f  1
 285r2.9670650e+008 9.12e+000 3.05e+003  -0.4 1.33e+000    -  1.09e-001 1.97e-001f  1
 286r2.8470584e+008 7.76e+000 3.57e+003  -0.4 3.24e+000    -  1.22e-001 1.44e-001f  1
 287r3.1086374e+008 8.09e+000 4.26e+003  -0.4 1.31e+000    -  1.26e-002 8.40e-002f  1
 288r3.4603273e+008 8.29e+000 4.86e+003  -0.4 2.32e+000    -  8.51e-002 6.06e-002f  1
 289r3.9837838e+008 6.37e+000 5.41e+003  -0.4 1.63e+000    -  2.02e-001 8.39e-002f  1
iter    objective    inf_pr   inf_du lg(mu)  ||d||  lg(rg) alpha_du alpha_pr  ls
 290r5.6607741e+008 4.71e+000 5.01e+003  -0.4 3.79e+000    -  7.75e-002 1.67e-001f  1
 291r7.0432797e+008 4.70e+000 5.54e+003  -0.4 1.90e+000    -  1.56e-001 2.73e-001f  1
 292r8.3562039e+008 2.41e+000 7.36e+003  -0.4 1.62e+000    -  7.84e-002 2.57e-001f  1
 293r9.3046546e+008 1.90e+000 4.82e+003  -0.4 1.26e+000    -  2.05e-001 2.27e-001f  1
 294r1.0002042e+009 1.64e+000 4.94e+003  -0.4 2.33e+000    -  1.17e-001 7.28e-002f  1
 295r9.8872973e+008 1.55e+000 4.92e+003  -0.4 1.74e+000    -  1.43e-001 2.29e-001f  1
 296r9.8694053e+008 2.19e+000 6.27e+003  -0.4 1.48e+000    -  2.33e-001 2.45e-001f  1
 297r9.8811290e+008 1.92e+000 3.18e+003  -0.4 2.26e+000    -  1.51e-001 2.43e-001h  1
 298r9.9765822e+008 1.25e+000 3.79e+003  -0.4 5.37e-001    -  4.28e-001 2.61e-001h  1
 299r1.0009405e+009 1.63e+000 4.67e+003  -0.4 1.44e+000    -  5.93e-001 2.87e-001h  1
iter    objective    inf_pr   inf_du lg(mu)  ||d||  lg(rg) alpha_du alpha_pr  ls
 300r1.0008982e+009 1.37e+000 4.90e+003  -0.4 9.68e-001    -  3.27e-002 3.12e-002F  1
 301r1.0001221e+009 7.36e-001 6.88e+003  -0.4 1.46e+000    -  1.91e-001 6.40e-001f  1
 302r1.0000934e+009 4.31e-001 7.35e+003  -0.4 2.30e+000    -  5.78e-002 8.82e-002h  1
 303r9.9977777e+008 7.15e-001 1.28e+004  -0.4 1.31e+000    -  4.87e-001 8.46e-001h  1
 304r9.9920137e+008 5.92e-001 1.70e+004  -0.4 3.54e+000    -  4.21e-001 1.69e-001f  1
 305r1.0011798e+009 5.87e-001 1.69e+004  -0.4 5.51e+000    -  4.14e-001 8.75e-003f  1
 306r1.0005227e+009 3.05e-001 7.92e+003  -0.4 4.75e+000    -  3.83e-001 3.89e-001f  1
 307r1.0006847e+009 2.36e-001 6.71e+003  -0.4 2.17e+000    -  2.83e-001 7.00e-001f  1
 308r1.0007157e+009 1.90e-001 4.34e+003  -0.4 4.95e+000    -  2.45e-001 2.02e-001f  1
 309r1.0007845e+009 1.89e-001 3.31e+003  -0.4 4.33e+000    -  1.82e-001 2.78e-001f  1
iter    objective    inf_pr   inf_du lg(mu)  ||d||  lg(rg) alpha_du alpha_pr  ls
 310r1.0008191e+009 1.93e-001 3.42e+003  -0.4 2.22e+000    -  2.02e-001 1.04e-001f  1
 311r1.0009880e+009 4.07e-001 5.75e+003  -0.4 1.87e+000    -  3.36e-001 5.14e-001f  1
 312r1.0008602e+009 5.24e-001 1.48e+004  -0.4 3.26e+000    -  5.26e-001 8.13e-001h  1
 313r1.0009444e+009 2.43e-001 1.29e+004  -0.4 6.13e-001    -  1.86e-001 2.16e-001h  1
 314r1.0011512e+009 5.57e-001 1.41e+004  -0.4 4.97e+000    -  1.30e-001 1.23e-001f  2
 315r1.0013024e+009 5.35e-001 1.25e+004  -0.4 1.25e+000    -  6.67e-001 2.12e-001H  1
 316r1.0014143e+009 5.42e-001 1.09e+004  -0.4 1.45e+000    -  1.00e+000 1.50e-001h  1
 317r1.0015872e+009 4.22e-001 7.04e+003  -0.4 1.69e+000    -  5.25e-001 3.50e-001h  2
 318r1.0016312e+009 4.24e-001 7.15e+003  -0.4 2.90e+000    -  1.00e+000 3.12e-002f  6
 319r1.0016427e+009 4.26e-001 7.15e+003  -0.4 6.03e+000    -  7.77e-001 4.88e-003f  8
iter    objective    inf_pr   inf_du lg(mu)  ||d||  lg(rg) alpha_du alpha_pr  ls
 320r1.0016444e+009 4.26e-001 7.15e+003  -0.4 4.89e+000    -  5.29e-001 8.52e-004f 11
 321r1.0016446e+009 4.26e-001 7.15e+003  -0.4 5.11e+000    -  1.00e+000 6.79e-005f 14
 322r1.0016446e+009 4.26e-001 7.15e+003  -0.4 4.45e+000    -  5.85e-001 2.97e-005h 16
 323r1.0032633e+009 9.21e-001 5.96e+003  -0.4 4.56e+000    -  8.38e-001 8.76e-001f  1
 324r1.0032468e+009 8.24e-001 9.89e+003  -0.4 2.16e+000    -  3.12e-001 2.35e-001h  2
 325r1.0033053e+009 5.29e-001 1.06e+004  -0.4 1.90e+000    -  3.23e-001 1.25e-001h  4
 326r1.0037289e+009 2.25e-001 9.92e+003  -0.4 1.31e+000    -  3.79e-001 2.50e-001h  3
 327r1.0051968e+009 3.85e-001 1.11e+004  -0.4 1.03e+000    -  7.46e-001 7.07e-001f  1
 328r1.0060141e+009 3.00e-001 1.59e+004  -0.4 1.83e+000    -  2.89e-001 6.10e-001f  1
 329r1.0090407e+009 1.50e-001 1.45e+004  -0.4 1.38e+000    -  7.35e-001 1.00e+000f  1
iter    objective    inf_pr   inf_du lg(mu)  ||d||  lg(rg) alpha_du alpha_pr  ls
 330r1.0085760e+009 2.26e-001 1.52e+004  -0.4 4.52e-001    -  7.14e-001 6.41e-001f  1
 331r1.0080648e+009 1.42e-001 1.50e+004  -0.4 7.60e-001    -  3.17e-001 1.85e-001H  1
 332r1.0069646e+009 1.56e-001 1.28e+004  -0.4 1.05e+000    -  3.32e-001 5.00e-001h  2
 333r1.0055730e+009 4.62